NAME: PointSet_Angle_25_5
TYPE: TSP
COMMENT: Points chosen discrete uniformly at random out of ${0, \ldots, 500}^2$.
DIMENSION: 25
EDGE_WEIGHT_TYPE: EUC_2D
NODE_COORD_SECTION
1 116 292
2 381 365
3 129 87
4 80 70
5 432 247
6 483 386
7 244 15
8 86 388
9 117 359
10 400 355
11 432 70
12 346 480
13 234 63
14 392 81
15 466 354
16 90 329
17 146 217
18 193 21
19 304 19
20 338 235
21 13 66
22 367 257
23 82 453
24 392 199
25 57 37
EOF
